100
100
3000 3000 3000 3000 3000 3000 3000 3000 3000 3000 3000 3000 3000 3000 3000 3000 3000 3000 3000 3000 3000 3000 3000 3000 3000 3000 3000 3000 3000 3000 3000 3000 3000 3000 3000 3000 3000 3000 3000 3000 3000 3000 3000 3000 3000 3000 3000 3000 3000 3000 3000 3000 3000 3000 3000 3000 3000 3000 3000 3000 3000 3000 3000 3000 3000 3000 3000 3000 3000 3000 3000 3000 3000 3000 3000 3000 3000 3000 3000 3000 3000 3000 3000 3000 3000 3000 3000 3000 3000 3000 3000 3000 3000 3000 3000 3000 3000 3000 3000 3000
0 9 4
0 10 3
0 21 1
0 28 2
0 31 0
0 55 1
0 65 4
0 82 3
1 0 4
1 3 2
1 5 3
1 12 0
1 14 4
1 25 1
1 29 2
1 35 0
1 49 3
1 62 0
1 63 2
1 77 3
1 81 0
1 83 2
1 88 4
1 99 0
2 12 4
2 53 2
2 83 4
2 95 2
3 27 4
3 45 3
3 47 0
3 68 1
3 74 2
3 78 0
3 96 2
4 13 3
4 19 0
4 26 2
4 29 2
4 38 4
4 47 2
4 84 2
4 86 0
4 98 3
4 99 2
5 13 1
5 19 1
5 20 4
5 24 3
5 41 1
5 61 0
5 72 4
5 80 4
5 81 3
5 88 2
5 96 1
6 1 4
6 2 0
6 4 2
6 14 2
6 33 0
6 51 3
6 57 2
6 58 0
6 63 1
6 76 3
6 89 4
7 7 2
7 14 1
7 25 1
7 27 3
7 28 2
7 43 1
7 47 3
7 63 3
7 70 3
7 71 0
7 91 0
8 7 3
8 17 2
8 25 3
8 36 0
8 39 3
8 42 1
8 70 1
8 87 2
8 89 4
8 96 3
9 0 2
9 6 0
9 10 0
9 20 2
9 23 1
9 39 2
9 41 3
9 42 2
9 49 2
9 53 1
9 64 0
9 67 3
9 76 1
9 80 4
9 96 1
10 19 2
10 20 3
10 32 0
10 34 1
10 52 2
10 78 4
10 83 3
10 84 1
10 98 4
11 8 1
11 22 1
11 28 1
11 29 3
11 35 4
11 41 1
11 43 0
11 44 0
11 56 1
11 58 3
11 72 3
11 86 2
11 94 3
11 98 1
12 1 3
12 4 3
12 16 1
12 28 4
12 33 0
12 37 1
12 44 4
12 54 0
12 58 1
12 68 3
12 77 1
12 81 2
12 89 0
12 95 1
13 14 0
13 18 2
13 51 2
13 54 1
13 61 0
13 87 4
14 8 4
14 13 1
14 17 3
14 18 4
14 22 0
14 29 0
14 36 4
14 45 3
14 46 3
14 48 2
14 52 3
14 55 2
14 61 4
14 67 3
15 3 4
15 7 4
15 20 0
15 42 1
15 47 2
15 60 1
15 78 3
15 80 1
16 1 2
16 4 2
16 11 0
16 19 0
16 32 2
16 38 2
16 41 1
16 50 3
16 57 1
16 64 0
16 68 4
16 74 2
16 87 2
16 91 2
16 99 0
17 6 0
17 13 1
17 38 2
17 48 2
17 49 0
17 59 2
17 66 4
17 69 4
17 82 1
17 90 0
18 5 0
18 14 1
18 21 4
18 28 4
18 35 4
18 37 1
18 38 3
18 61 4
18 62 0
18 66 4
18 67 1
18 78 2
19 6 4
19 11 0
19 17 2
19 30 0
19 33 2
19 46 4
19 54 2
19 60 1
19 70 2
19 73 4
19 74 4
19 78 1
19 89 1
19 95 4
19 97 2
20 4 3
20 5 3
20 19 0
20 31 0
20 46 0
20 49 4
20 58 2
20 70 0
20 79 4
20 87 4
20 90 1
20 91 2
21 2 1
21 9 2
21 21 2
21 23 0
21 46 0
21 54 3
21 56 3
21 61 2
21 68 4
22 0 3
22 13 1
22 17 4
22 32 1
22 34 0
22 58 0
22 64 3
22 65 3
22 68 3
23 29 2
23 32 1
23 39 2
23 47 2
23 68 2
23 69 3
23 75 3
23 80 3
23 85 3
24 3 2
24 12 4
24 13 3
24 37 2
24 51 2
24 90 4
25 27 2
25 28 4
25 29 2
25 43 1
25 45 1
25 54 4
25 61 2
25 92 4
25 95 1
25 98 3
26 44 3
26 48 0
26 49 3
26 62 0
27 45 0
27 60 1
27 72 0
27 98 2
28 2 3
28 5 4
28 32 1
28 45 0
28 65 3
28 67 4
28 78 2
28 85 3
28 99 0
29 14 3
29 18 1
29 31 1
29 43 0
29 47 1
29 73 4
29 74 3
29 76 2
29 94 0
30 20 4
30 21 0
30 26 0
30 32 0
30 41 3
30 44 0
30 47 4
30 52 1
30 67 1
30 78 3
30 82 2
30 83 0
30 85 4
30 91 0
31 88 0
31 95 2
32 11 4
32 24 3
32 35 3
32 40 4
32 50 4
32 55 1
32 70 0
32 78 1
32 81 3
32 84 3
33 11 4
33 37 4
33 43 2
33 45 0
33 49 4
33 81 0
33 83 0
33 88 0
34 0 0
34 3 4
34 8 1
34 21 1
34 24 3
34 30 2
34 31 2
34 39 0
34 41 0
34 42 3
34 68 4
34 94 1
35 0 0
35 4 1
35 15 4
35 17 1
35 33 2
35 38 2
35 41 2
35 57 4
35 60 1
35 63 0
35 71 2
35 79 1
35 80 1
35 90 1
35 91 2
36 15 0
36 29 2
36 40 3
36 48 4
36 57 2
36 86 2
36 93 3
37 15 3
37 16 2
37 18 2
37 24 4
37 26 0
37 35 1
37 39 2
37 56 3
37 64 1
37 66 1
37 72 4
37 99 0
38 16 4
38 40 3
38 46 1
38 47 3
38 51 0
38 52 0
38 63 2
38 96 2
39 6 2
39 12 3
39 26 3
39 33 0
39 44 0
39 59 1
39 73 3
39 85 1
39 93 3
40 8 4
40 13 0
40 30 2
40 35 2
40 42 2
40 53 1
40 61 1
40 62 1
40 83 0
41 4 0
41 12 4
41 20 4
41 25 1
41 31 0
41 33 1
41 55 2
41 58 1
41 67 2
41 79 3
41 95 1
42 2 1
42 5 2
42 9 1
42 24 0
42 31 1
42 45 2
42 51 3
42 55 3
42 56 0
42 68 0
42 69 2
42 86 2
42 93 3
43 14 4
43 19 3
43 25 1
43 31 2
43 43 3
43 46 4
43 52 4
43 57 3
43 69 2
43 71 4
43 82 3
43 83 0
43 89 0
43 97 3
44 15 1
44 22 0
44 32 0
44 57 0
44 66 0
44 73 1
44 74 1
44 81 4
45 19 2
45 32 0
45 40 1
45 45 3
45 54 1
45 57 4
45 72 2
45 77 1
46 25 3
46 29 2
46 34 0
46 57 4
46 67 3
46 79 1
46 82 1
46 90 4
47 2 1
47 7 1
47 10 0
47 11 2
47 27 2
47 45 1
47 52 3
47 61 3
47 62 1
47 70 3
47 79 2
47 90 0
47 96 1
47 98 3
48 5 4
48 7 2
48 25 0
48 39 3
48 40 3
48 42 2
48 48 2
48 74 2
48 92 1
49 3 0
49 10 2
49 16 1
49 21 3
49 26 4
49 27 4
49 29 0
49 37 2
49 41 1
49 48 2
49 49 2
49 58 4
49 67 4
49 74 3
49 82 0
49 97 0
50 17 2
50 31 3
50 41 0
50 53 4
50 55 3
50 56 1
50 69 3
50 71 3
50 85 2
50 91 4
50 95 3
51 1 0
51 10 2
51 39 2
51 59 0
51 60 0
51 69 4
51 75 0
51 80 1
51 90 3
51 94 2
52 18 1
52 25 0
52 60 4
52 64 1
52 73 4
52 75 4
52 96 1
53 5 4
53 8 1
53 9 2
53 11 3
53 19 0
53 23 1
53 62 3
53 67 3
53 85 4
53 99 4
54 9 0
54 20 1
54 37 3
54 46 4
54 50 0
54 55 0
54 63 1
54 65 0
54 98 3
55 0 4
55 9 1
55 23 0
55 24 0
55 34 1
55 51 1
55 70 2
55 76 3
56 5 4
56 14 0
56 16 0
56 18 4
56 23 2
56 28 1
56 37 1
56 69 2
56 72 3
57 12 2
57 22 1
57 38 1
57 61 2
57 66 4
57 67 0
57 73 1
57 75 1
57 82 3
57 97 2
57 98 0
58 8 3
58 33 2
58 34 3
58 51 3
58 53 1
58 57 1
58 60 1
58 82 4
58 92 1
58 97 1
59 10 1
59 36 3
59 44 4
59 53 1
59 60 2
59 65 1
59 71 2
59 84 4
59 89 4
60 6 4
60 7 3
60 8 2
60 12 2
60 16 4
60 20 0
60 36 1
60 54 4
60 72 1
60 86 4
60 87 2
60 91 1
60 92 1
61 40 4
61 50 2
61 64 4
61 66 1
61 71 2
61 77 0
61 81 3
61 93 2
62 33 0
62 46 3
62 50 3
62 53 2
62 59 1
62 81 2
62 93 4
63 4 1
63 10 3
63 19 2
63 26 2
63 46 4
63 53 3
63 66 2
63 75 2
63 76 4
63 77 0
63 83 4
63 94 3
64 25 1
64 26 4
64 32 4
64 33 4
64 48 0
64 49 3
64 50 3
64 81 0
64 82 0
64 94 1
65 10 3
65 13 2
65 22 4
65 27 2
65 31 1
65 34 4
65 77 1
65 87 3
65 89 4
66 6 4
66 16 3
66 28 0
66 32 0
66 52 4
66 59 4
66 66 4
66 92 0
67 8 0
67 11 0
67 14 0
67 45 1
67 54 1
67 63 0
67 64 4
67 80 0
67 83 4
67 92 4
67 93 2
67 97 3
68 1 2
68 3 0
68 7 4
68 15 3
68 24 3
68 35 2
68 50 4
68 56 1
68 60 0
68 68 4
68 72 2
68 93 4
68 96 2
69 4 3
69 10 0
69 12 0
69 18 3
69 43 0
69 59 0
69 61 3
69 69 4
69 86 3
69 88 0
69 91 3
69 97 2
70 3 1
70 9 4
70 10 3
70 27 0
70 39 3
70 43 2
70 52 1
70 53 1
70 69 4
70 74 4
70 75 4
70 77 4
70 84 1
70 97 4
71 0 2
71 21 4
71 27 1
71 56 4
71 97 0
72 13 2
72 15 2
72 16 3
72 44 1
72 57 4
72 71 2
72 84 4
72 85 4
72 86 3
73 11 3
73 18 0
73 30 2
73 55 0
73 59 3
73 62 2
73 65 1
73 71 1
73 75 4
73 79 1
73 87 4
73 94 4
73 97 3
74 1 2
74 6 1
74 22 2
74 26 2
74 46 4
74 66 1
74 74 3
74 93 3
75 18 1
75 21 0
75 36 4
75 39 1
75 42 0
75 62 2
75 65 1
75 84 2
75 86 4
75 87 2
75 96 4
76 8 3
76 12 4
76 40 3
76 50 1
76 73 2
76 77 4
76 86 2
76 87 2
76 94 0
77 2 0
77 5 3
77 24 2
77 47 4
77 60 2
77 64 2
77 76 3
77 85 3
78 14 4
78 21 3
78 24 4
78 30 1
78 38 1
78 40 2
78 54 3
78 63 2
78 69 2
78 84 1
78 90 1
78 91 4
79 17 1
79 18 2
79 30 0
79 34 4
79 38 0
79 58 3
79 73 0
79 95 2
80 0 3
80 2 3
80 34 0
80 37 4
80 50 0
80 51 3
80 52 1
80 56 3
80 65 3
80 71 2
80 73 1
80 84 1
80 92 1
80 95 4
81 2 1
81 7 2
81 11 0
81 30 1
81 37 0
81 44 1
81 48 4
81 54 1
81 56 1
81 66 1
81 83 4
81 89 3
82 2 3
82 3 4
82 4 0
82 16 3
82 27 1
82 36 4
82 38 4
82 55 4
82 78 2
82 79 0
82 80 0
82 93 0
83 3 2
83 15 0
83 27 1
83 43 4
83 49 0
83 88 1
84 6 4
84 12 0
84 15 0
84 16 1
84 20 3
84 22 1
84 38 3
84 43 3
84 44 0
84 47 2
84 72 1
84 92 1
84 94 3
85 64 3
85 65 2
85 73 1
85 74 1
85 76 0
85 77 4
85 88 1
85 94 3
85 98 3
85 99 2
86 28 4
86 40 0
86 42 2
86 72 1
86 75 1
86 79 0
86 86 2
87 2 2
87 6 4
87 9 1
87 20 3
87 23 1
87 25 3
87 48 2
87 49 2
87 99 0
88 37 2
88 56 0
88 59 3
88 63 2
88 81 4
88 84 2
89 7 0
89 23 3
89 26 4
89 36 3
89 63 2
89 64 4
89 75 3
89 95 3
90 1 4
90 23 0
90 30 0
90 31 0
90 39 1
90 41 4
90 42 2
90 59 0
90 62 0
90 70 2
90 76 0
90 78 2
90 85 0
90 99 4
91 1 1
91 11 3
91 24 0
91 28 3
91 30 1
91 35 2
91 93 2
92 4 1
92 17 4
92 29 4
92 34 4
92 35 2
92 44 0
92 52 3
92 53 3
92 65 2
92 68 4
92 82 1
92 88 2
92 90 1
92 91 2
92 92 4
93 1 4
93 22 3
93 30 0
93 36 4
93 48 2
93 50 0
93 51 1
93 70 2
93 80 2
93 88 0
93 96 1
94 0 2
94 3 1
94 6 2
94 7 4
94 34 3
94 36 1
94 70 4
94 71 2
94 76 1
95 5 4
95 15 0
95 17 1
95 22 1
95 23 4
95 76 3
95 87 4
95 88 0
95 92 0
96 0 2
96 8 3
96 13 1
96 15 0
96 17 2
96 40 0
96 55 1
96 58 3
96 89 0
96 98 2
97 1 2
97 9 3
97 21 2
97 59 3
97 77 2
97 79 1
97 85 3
97 89 0
98 22 4
98 23 3
98 36 3
98 51 2
98 58 2
98 75 3
98 79 4
98 80 4
98 99 3
99 9 4
99 19 0
99 26 0
99 33 1
99 35 4
99 42 3
99 62 3
99 90 4
